0 5 3 1 3 2 4 2 1 3 5 3 3 1 3 2 4 2 1 3 5 6 3 1 3 2 4 2 1 3 5 9 3 1 3 2 4 2 1 3 5 7 3 1 3 2 4 2 1 3 5 4 3 1 3 2 4 2 1 3 5 7 3 1 3 2 4 2 1 3 5 5 3 1 3 2 4 2 1 3 5 3 3 1 3 2 4 2 1 3 5 8 3 1 3 2 4 2 1 3 5